NAME: random-32-32198
TYPE: TSP
COMMENT: size=32 seed=32198
DIMENSION: 66
EDGE_WEIGHT_TYPE: EUC_2D
NODE_COORD_SECTION
+0 786 257
-0 786 257
+1 502 506
-1 154 718
+2 217 917
-2 611 242
+3 931 205
-3 939 9
+4 723 533
-4 105 832
+5 20 998
-5 321 260
+6 12 732
-6 835 106
+7 650 658
-7 636 521
+8 226 250
-8 480 838
+9 99 464
-9 519 897
+10 228 564
-10 418 896
+11 911 530
-11 105 223
+12 752 689
-12 885 140
+13 399 315
-13 415 453
+14 944 214
-14 662 144
+15 140 0
-15 621 768
+16 349 359
-16 303 897
+17 292 756
-17 717 142
+18 843 893
-18 38 934
+19 315 164
-19 357 509
+20 632 320
-20 572 796
+21 481 920
-21 302 660
+22 838 334
-22 548 640
+23 243 314
-23 192 82
+24 372 908
-24 587 534
+25 98 904
-25 649 517
+26 123 202
-26 801 198
+27 636 642
-27 862 567
+28 678 337
-28 384 187
+29 948 52
-29 900 823
+30 417 159
-30 500 251
+31 555 126
-31 268 512
+32 60 548
-32 843 152
PRECEDENCE_SECTION
+0 -0
+1 -1
+2 -2
+3 -3
+4 -4
+5 -5
+6 -6
+7 -7
+8 -8
+9 -9
+10 -10
+11 -11
+12 -12
+13 -13
+14 -14
+15 -15
+16 -16
+17 -17
+18 -18
+19 -19
+20 -20
+21 -21
+22 -22
+23 -23
+24 -24
+25 -25
+26 -26
+27 -27
+28 -28
+29 -29
+30 -30
+31 -31
+32 -32
EOF
